NAME: SCAIL137_4336_09
COMMENT:Generated as the SCAIL100 dataset for the INCOM2024 Data Challenge
TYPE: Multi-Depot CVRP
DEPOTS: 4
DIMENSION: 141
EDGE_WEIGHT_TYPE: EUC_2D
CAPACITY: 310

NODE_COORD_SECTION 
1    273  141 
2    828  44  
3    958  631 
4    190  887 
5    624  104 
6    611  3   
7    579  755 
8    291  105 
9    274  754 
10   55   276 
11   763  18  
12   641  181 
13   620  872 
14   663  788 
15   981  42  
16   762  263 
17   591  521 
18   884  902 
19   339  803 
20   176  962 
21   529  802 
22   86   586 
23   852  141 
24   357  717 
25   95   717 
26   928  871 
27   592  202 
28   68   434 
29   899  362 
30   916  872 
31   88   888 
32   56   917 
33   741  245 
34   784  399 
35   227  454 
36   796  254 
37   345  681 
38   860  257 
39   355  112 
40   674  228 
41   604  578 
42   638  857 
43   657  205 
44   907  5   
45   44   753 
46   387  866 
47   124  782 
48   339  670 
49   202  756 
50   943  202 
51   951  352 
52   673  249 
53   17   512 
54   670  534 
55   188  769 
56   462  215 
57   778  106 
58   357  687 
59   114  218 
60   416  602 
61   85   136 
62   503  142 
63   508  550 
64   0    443 
65   587  212 
66   568  699 
67   652  744 
68   896  265 
69   67   435 
70   722  412 
71   476  637 
72   855  148 
73   593  148 
74   851  388 
75   124  889 
76   438  509 
77   795  270 
78   689  655 
79   622  336 
80   550  51  
81   877  336 
82   663  236 
83   368  797 
84   374  865 
85   598  374 
86   819  230 
87   758  244 
88   411  203 
89   388  818 
90   48   215 
91   413  713 
92   566  696 
93   719  261 
94   152  763 
95   24   242 
96   430  70  
97   828  241 
98   407  196 
99   390  799 
100  382  761 
101  680  275 
102  734  737 
103  474  734 
104  589  35  
105  693  83  
106  969  588 
107  207  338 
108  8    913 
109  339  701 
110  801  329 
111  314  644 
112  793  270 
113  690  534 
114  552  939 
115  225  654 
116  834  90  
117  643  733 
118  625  517 
119  623  736 
120  114  987 
121  204  725 
122  276  332 
123  662  120 
124  355  549 
125  573  826 
126  173  282 
127  493  766 
128  793  704 
129  242  165 
130  434  753 
131  163  482 
132  56   26  
133  900  421 
134  685  780 
135  973  927 
136  354  726 
137  596  220 
138  623  768 
139  654  783 
140  83   339 
141  357  740 

DEMAND_SECTION
1    0   
2    0   
3    0   
4    0   
5    7   
6    8   
7    8   
8    6   
9    9   
10   10  
11   9   
12   7   
13   10  
14   8   
15   9   
16   9   
17   8   
18   6   
19   5   
20   6   
21   10  
22   9   
23   8   
24   5   
25   10  
26   9   
27   10  
28   10  
29   9   
30   9   
31   6   
32   9   
33   5   
34   7   
35   6   
36   8   
37   9   
38   8   
39   8   
40   5   
41   10  
42   9   
43   5   
44   6   
45   5   
46   6   
47   10  
48   6   
49   10  
50   7   
51   7   
52   7   
53   10  
54   10  
55   10  
56   7   
57   6   
58   9   
59   6   
60   9   
61   8   
62   9   
63   10  
64   7   
65   10  
66   10  
67   8   
68   6   
69   7   
70   7   
71   6   
72   10  
73   7   
74   6   
75   9   
76   9   
77   9   
78   7   
79   5   
80   10  
81   5   
82   10  
83   8   
84   6   
85   6   
86   7   
87   10  
88   5   
89   6   
90   8   
91   7   
92   9   
93   9   
94   7   
95   10  
96   5   
97   7   
98   9   
99   8   
100  8   
101  9   
102  8   
103  7   
104  5   
105  7   
106  9   
107  9   
108  5   
109  9   
110  7   
111  8   
112  10  
113  5   
114  8   
115  6   
116  5   
117  5   
118  8   
119  7   
120  5   
121  9   
122  8   
123  6   
124  6   
125  7   
126  9   
127  10  
128  6   
129  7   
130  5   
131  7   
132  6   
133  7   
134  6   
135  10  
136  9   
137  10  
138  6   
139  8   
140  10  
141  6   

DEPOT_SECTION
1    273  141 
2    828  44  
3    958  631 
4    190  887 
-1
EOF
